(set-option :produce-models true)
(set-logic QF_LRA)
(set-info :notes | Strip-packing problem.|)
(declare-fun x0 () Real)
(declare-fun y0 () Real)
(declare-fun x1 () Real)
(declare-fun y1 () Real)
(declare-fun x2 () Real)
(declare-fun y2 () Real)
(declare-fun x3 () Real)
(declare-fun y3 () Real)
(declare-fun x4 () Real)
(declare-fun y4 () Real)
(declare-fun x5 () Real)
(declare-fun y5 () Real)
(declare-fun x6 () Real)
(declare-fun y6 () Real)
(declare-fun x7 () Real)
(declare-fun y7 () Real)
(declare-fun x8 () Real)
(declare-fun y8 () Real)
(declare-fun z () Real)
(declare-fun c () Real)
(assert (and (= c z) (and (>= x0 0) 
(and (>= y0 0) 
(and (>= x1 0) 
(and (>= y1 0) 
(and (>= x2 0) 
(and (>= y2 0) 
(and (>= x3 0) 
(and (>= y3 0) 
(and (>= x4 0) 
(and (>= y4 0) 
(and (>= x5 0) 
(and (>= y5 0) 
(and (>= x6 0) 
(and (>= y6 0) 
(and (>= x7 0) 
(and (>= y7 0) 
(and (>= x8 0) 
(and (>= y8 0) 
(and (>= z 0) 
(and (>= c 0) 
(and (<= (+ x0 0.4139356266) z) 
(and (<= 0.6397788943 y0) 
(and (<= y0 1.0) 
(and (<= x0 (- 2.8540054655 0.4139356266)) 
(and (>= x0 0) 
(and (<= (+ x1 0.0736425752) z) 
(and (<= 0.6026212458 y1) 
(and (<= y1 1.0) 
(and (<= x1 (- 2.8540054655 0.0736425752)) 
(and (>= x1 0) 
(and (<= (+ x2 0.0032820532) z) 
(and (<= 0.5961060696 y2) 
(and (<= y2 1.0) 
(and (<= x2 (- 2.8540054655 0.0032820532)) 
(and (>= x2 0) 
(and (<= (+ x3 0.7564822373) z) 
(and (<= 0.4977910105 y3) 
(and (<= y3 1.0) 
(and (<= x3 (- 2.8540054655 0.7564822373)) 
(and (>= x3 0) 
(and (<= (+ x4 0.7686004875) z) 
(and (<= 0.4476713594 y4) 
(and (<= y4 1.0) 
(and (<= x4 (- 2.8540054655 0.7686004875)) 
(and (>= x4 0) 
(and (<= (+ x5 0.4518848917) z) 
(and (<= 0.3710766186 y5) 
(and (<= y5 1.0) 
(and (<= x5 (- 2.8540054655 0.4518848917)) 
(and (>= x5 0) 
(and (<= (+ x6 0.032132108) z) 
(and (<= 0.2685280837 y6) 
(and (<= y6 1.0) 
(and (<= x6 (- 2.8540054655 0.032132108)) 
(and (>= x6 0) 
(and (<= (+ x7 0.8380624857) z) 
(and (<= 0.1787777842 y7) 
(and (<= y7 1.0) 
(and (<= x7 (- 2.8540054655 0.8380624857)) 
(and (>= x7 0) 
(and (<= (+ x8 0.0161547884) z) 
(and (<= 0.1474266789 y8) 
(and (<= y8 1.0) 
(and (<= x8 (- 2.8540054655 0.0161547884)) 
(and (>= x8 0) 
(and (<= c 2.8540054655) 
(and (or (<= (+ x0 0.4139356266) x1) (or (<= (+ x1 0.0736425752) x0) (or (>= (- y0 0.6397788943) y1) (or (>= (- y1 0.6026212458) y0))))) 
(and (or (<= (+ x0 0.4139356266) x2) (or (<= (+ x2 0.0032820532) x0) (or (>= (- y0 0.6397788943) y2) (or (>= (- y2 0.5961060696) y0))))) 
(and (or (<= (+ x0 0.4139356266) x3) (or (<= (+ x3 0.7564822373) x0) (or (>= (- y0 0.6397788943) y3) (or (>= (- y3 0.4977910105) y0))))) 
(and (or (<= (+ x0 0.4139356266) x4) (or (<= (+ x4 0.7686004875) x0) (or (>= (- y0 0.6397788943) y4) (or (>= (- y4 0.4476713594) y0))))) 
(and (or (<= (+ x0 0.4139356266) x5) (or (<= (+ x5 0.4518848917) x0) (or (>= (- y0 0.6397788943) y5) (or (>= (- y5 0.3710766186) y0))))) 
(and (or (<= (+ x0 0.4139356266) x6) (or (<= (+ x6 0.032132108) x0) (or (>= (- y0 0.6397788943) y6) (or (>= (- y6 0.2685280837) y0))))) 
(and (or (<= (+ x0 0.4139356266) x7) (or (<= (+ x7 0.8380624857) x0) (or (>= (- y0 0.6397788943) y7) (or (>= (- y7 0.1787777842) y0))))) 
(and (or (<= (+ x0 0.4139356266) x8) (or (<= (+ x8 0.0161547884) x0) (or (>= (- y0 0.6397788943) y8) (or (>= (- y8 0.1474266789) y0))))) 
(and (or (<= (+ x1 0.0736425752) x2) (or (<= (+ x2 0.0032820532) x1) (or (>= (- y1 0.6026212458) y2) (or (>= (- y2 0.5961060696) y1))))) 
(and (or (<= (+ x1 0.0736425752) x3) (or (<= (+ x3 0.7564822373) x1) (or (>= (- y1 0.6026212458) y3) (or (>= (- y3 0.4977910105) y1))))) 
(and (or (<= (+ x1 0.0736425752) x4) (or (<= (+ x4 0.7686004875) x1) (or (>= (- y1 0.6026212458) y4) (or (>= (- y4 0.4476713594) y1))))) 
(and (or (<= (+ x1 0.0736425752) x5) (or (<= (+ x5 0.4518848917) x1) (or (>= (- y1 0.6026212458) y5) (or (>= (- y5 0.3710766186) y1))))) 
(and (or (<= (+ x1 0.0736425752) x6) (or (<= (+ x6 0.032132108) x1) (or (>= (- y1 0.6026212458) y6) (or (>= (- y6 0.2685280837) y1))))) 
(and (or (<= (+ x1 0.0736425752) x7) (or (<= (+ x7 0.8380624857) x1) (or (>= (- y1 0.6026212458) y7) (or (>= (- y7 0.1787777842) y1))))) 
(and (or (<= (+ x1 0.0736425752) x8) (or (<= (+ x8 0.0161547884) x1) (or (>= (- y1 0.6026212458) y8) (or (>= (- y8 0.1474266789) y1))))) 
(and (or (<= (+ x2 0.0032820532) x3) (or (<= (+ x3 0.7564822373) x2) (or (>= (- y2 0.5961060696) y3) (or (>= (- y3 0.4977910105) y2))))) 
(and (or (<= (+ x2 0.0032820532) x4) (or (<= (+ x4 0.7686004875) x2) (or (>= (- y2 0.5961060696) y4) (or (>= (- y4 0.4476713594) y2))))) 
(and (or (<= (+ x2 0.0032820532) x5) (or (<= (+ x5 0.4518848917) x2) (or (>= (- y2 0.5961060696) y5) (or (>= (- y5 0.3710766186) y2))))) 
(and (or (<= (+ x2 0.0032820532) x6) (or (<= (+ x6 0.032132108) x2) (or (>= (- y2 0.5961060696) y6) (or (>= (- y6 0.2685280837) y2))))) 
(and (or (<= (+ x2 0.0032820532) x7) (or (<= (+ x7 0.8380624857) x2) (or (>= (- y2 0.5961060696) y7) (or (>= (- y7 0.1787777842) y2))))) 
(and (or (<= (+ x2 0.0032820532) x8) (or (<= (+ x8 0.0161547884) x2) (or (>= (- y2 0.5961060696) y8) (or (>= (- y8 0.1474266789) y2))))) 
(and (or (<= (+ x3 0.7564822373) x4) (or (<= (+ x4 0.7686004875) x3) (or (>= (- y3 0.4977910105) y4) (or (>= (- y4 0.4476713594) y3))))) 
(and (or (<= (+ x3 0.7564822373) x5) (or (<= (+ x5 0.4518848917) x3) (or (>= (- y3 0.4977910105) y5) (or (>= (- y5 0.3710766186) y3))))) 
(and (or (<= (+ x3 0.7564822373) x6) (or (<= (+ x6 0.032132108) x3) (or (>= (- y3 0.4977910105) y6) (or (>= (- y6 0.2685280837) y3))))) 
(and (or (<= (+ x3 0.7564822373) x7) (or (<= (+ x7 0.8380624857) x3) (or (>= (- y3 0.4977910105) y7) (or (>= (- y7 0.1787777842) y3))))) 
(and (or (<= (+ x3 0.7564822373) x8) (or (<= (+ x8 0.0161547884) x3) (or (>= (- y3 0.4977910105) y8) (or (>= (- y8 0.1474266789) y3))))) 
(and (or (<= (+ x4 0.7686004875) x5) (or (<= (+ x5 0.4518848917) x4) (or (>= (- y4 0.4476713594) y5) (or (>= (- y5 0.3710766186) y4))))) 
(and (or (<= (+ x4 0.7686004875) x6) (or (<= (+ x6 0.032132108) x4) (or (>= (- y4 0.4476713594) y6) (or (>= (- y6 0.2685280837) y4))))) 
(and (or (<= (+ x4 0.7686004875) x7) (or (<= (+ x7 0.8380624857) x4) (or (>= (- y4 0.4476713594) y7) (or (>= (- y7 0.1787777842) y4))))) 
(and (or (<= (+ x4 0.7686004875) x8) (or (<= (+ x8 0.0161547884) x4) (or (>= (- y4 0.4476713594) y8) (or (>= (- y8 0.1474266789) y4))))) 
(and (or (<= (+ x5 0.4518848917) x6) (or (<= (+ x6 0.032132108) x5) (or (>= (- y5 0.3710766186) y6) (or (>= (- y6 0.2685280837) y5))))) 
(and (or (<= (+ x5 0.4518848917) x7) (or (<= (+ x7 0.8380624857) x5) (or (>= (- y5 0.3710766186) y7) (or (>= (- y7 0.1787777842) y5))))) 
(and (or (<= (+ x5 0.4518848917) x8) (or (<= (+ x8 0.0161547884) x5) (or (>= (- y5 0.3710766186) y8) (or (>= (- y8 0.1474266789) y5))))) 
(and (or (<= (+ x6 0.032132108) x7) (or (<= (+ x7 0.8380624857) x6) (or (>= (- y6 0.2685280837) y7) (or (>= (- y7 0.1787777842) y6))))) 
(and (or (<= (+ x6 0.032132108) x8) (or (<= (+ x8 0.0161547884) x6) (or (>= (- y6 0.2685280837) y8) (or (>= (- y8 0.1474266789) y6))))) 
(and (or (<= (+ x7 0.8380624857) x8) (or (<= (+ x8 0.0161547884) x7) (or (>= (- y7 0.1787777842) y8) (or (>= (- y8 0.1474266789) y7))))) ))))))))))))))))))))))))))))))))))))))))))))))))))))))))))))))))))))))))))))))))))))))))))))))))))))))))
(minimize c)
(check-sat)
(get-objectives)
(exit)
